DATASET = "thpack5";
INSTANCE = "063";

WIDTH = 233;
HEIGHT = 220;
LENGTH = 587;

NO_OF_SHAPES = 12;
size = [|
  82,76,59 |
  60,51,50 |
  104,66,61 |
  71,36,28 |
  89,77,26 |
  108,84,66 |
  90,51,45 |
  48,35,33 |
  89,57,52 |
  99,77,58 |
  92,86,66 |
  93,80,46 |
|];

verticality = [|
  1,1,1 |
  1,1,1 |
  1,1,1 |
  0,1,1 |
  0,0,1 |
  1,1,1 |
  0,1,1 |
  1,1,1 |
  1,1,1 |
  1,1,1 |
  1,1,1 |
  0,1,1 |
|];

box_count = [
  8,
  11,
  6,
  11,
  5,
  8,
  12,
  10,
  8,
  6,
  9,
  11,
];
